(set-option :print-success false)
(set-logic QF_UF)
(declare-sort x143 0)
(declare-sort x69 0)
(declare-fun x135 (x69 x69) x69)
(declare-fun x62 () x69)
(declare-fun x149 () x69)
(declare-fun x109 (x69 x69) x69)
(declare-fun x31 () x69)
(declare-fun x64 () x69)
(declare-fun x35 () x69)
(assert (let ((x141 (x135 x35 x31)) (x134 (x135 x62 x35)) (x89 (x135 x31 x35)) (x136 (x135 x62 x31)) (x92 (x135 x62 x64)) (x65 (x135 x149 x64)) (x55 (x135 x31 x64)) (x21 (x135 x35 x35)) (x45 (x135 x64 x149)) (x98 (x135 x35 x149)) (x15 (x135 x149 x62)) (x155 (x135 x35 x62)) (x34 (x135 x62 x62)) (x42 (x135 x64 x31)) (x128 (x135 x62 x149)) (x86 (x135 x64 x62)) (x154 (x135 x35 x64)) (x132 (x135 x149 x149)) (x100 (x135 x31 x149)) (x150 (x135 x31 x62)) (x111 (x135 x64 x35)) (x158 (x135 x149 x35)) (x56 (x135 x31 x31)) (x79 (x135 x149 x31)) (x60 (x135 x64 x64))) (and (and (and (and (and (and (and (and (or (or (or (= x132 x35) (or (= x132 x31) (= x132 x149))) (= x62 x132)) (= x132 x64)) (or (= x79 x64) (or (= x62 x79) (or (= x79 x35) (or (= x79 x149) (= x31 x79)))))) (or (or (or (= x158 x35) (or (= x158 x31) (= x149 x158))) (= x62 x158)) (= x64 x158))) (or (or (or (= x35 x15) (or (= x15 x149) (= x15 x31))) (= x15 x62)) (= x15 x64))) (or (= x65 x64) (or (or (= x35 x65) (or (= x31 x65) (= x149 x65))) (= x65 x62)))) (and (or (= x55 x64) (or (= x62 x55) (or (or (= x55 x31) (= x55 x149)) (= x35 x55)))) (and (and (or (or (= x62 x89) (or (= x35 x89) (or (= x89 x31) (= x149 x89)))) (= x64 x89)) (and (or (= x64 x56) (or (= x62 x56) (or (= x35 x56) (or (= x56 x149) (= x56 x31))))) (or (= x100 x64) (or (= x100 x62) (or (= x100 x35) (or (= x100 x149) (= x31 x100))))))) (or (or (= x62 x150) (or (= x35 x150) (or (= x31 x150) (= x149 x150)))) (= x150 x64))))) (and (or (or (or (= x35 x154) (or (= x149 x154) (= x154 x31))) (= x154 x62)) (= x64 x154)) (and (or (= x155 x64) (or (= x62 x155) (or (= x155 x35) (or (= x31 x155) (= x149 x155))))) (and (or (or (= x62 x21) (or (or (= x21 x31) (= x149 x21)) (= x21 x35))) (= x21 x64)) (and (or (or (or (or (= x141 x31) (= x141 x149)) (= x35 x141)) (= x141 x62)) (= x64 x141)) (or (= x64 x98) (or (or (= x98 x35) (or (= x31 x98) (= x98 x149))) (= x62 x98)))))))) (and (and (and (and (or (or (= x62 x136) (or (= x35 x136) (or (= x136 x149) (= x31 x136)))) (= x136 x64)) (or (or (= x62 x128) (or (= x128 x35) (or (= x128 x149) (= x128 x31)))) (= x64 x128))) (or (= x134 x64) (or (= x134 x62) (or (or (= x134 x31) (= x149 x134)) (= x35 x134))))) (or (= x34 x64) (or (or (or (= x34 x31) (= x34 x149)) (= x35 x34)) (= x34 x62)))) (or (= x92 x64) (or (or (= x35 x92) (or (= x92 x149) (= x31 x92))) (= x62 x92))))) (and (and (and (or (or (or (= x35 x111) (or (= x31 x111) (= x149 x111))) (= x62 x111)) (= x64 x111)) (and (or (or (= x62 x45) (or (= x45 x35) (or (= x45 x149) (= x45 x31)))) (= x64 x45)) (or (or (= x62 x42) (or (or (= x42 x149) (= x31 x42)) (= x35 x42))) (= x64 x42)))) (or (= x86 x64) (or (= x62 x86) (or (= x86 x35) (or (= x31 x86) (= x149 x86)))))) (or (= x60 x64) (or (or (or (= x31 x60) (= x60 x149)) (= x60 x35)) (= x62 x60)))))))
(assert (and (not (= x62 x64)) (and (not (= x35 x64)) (and (not (= x35 x62)) (and (not (= x31 x64)) (and (and (not (= x35 x31)) (and (and (not (= x62 x149)) (and (not (= x31 x149)) (not (= x149 x35)))) (not (= x149 x64)))) (not (= x62 x31))))))))
(assert (let ((x42 (x135 x31 x64)) (x138 (x135 x64 x31)) (x73 (x135 x64 x62)) (x137 (x135 x64 x64)) (x65 (x135 x149 x62)) (x100 (x135 x149 x64)) (x130 (x135 x35 x35)) (x150 (x135 x35 x149)) (x158 (x135 x149 x31)) (x92 (x135 x31 x35)) (x79 (x135 x149 x149)) (x45 (x135 x31 x62)) (x15 (x135 x149 x35)) (x55 (x135 x62 x149)) (x63 (x135 x62 x62)) (x106 (x135 x62 x64)) (x75 (x135 x62 x35)) (x66 (x135 x64 x35)) (x108 (x135 x35 x64)) (x89 (x135 x31 x149)) (x98 (x135 x64 x149)) (x7 (x135 x62 x31)) (x34 (x135 x31 x31)) (x24 (x135 x35 x62)) (x60 (x135 x35 x31))) (let ((x43 (= x62 x34)) (x78 (= x64 x24)) (x145 (= x62 x130)) (x53 (= x64 x158)) (x128 (= x158 x149)) (x77 (= x98 x64)) (x110 (= x42 x35)) (x144 (= x149 x92)) (x36 (= x150 x35)) (x156 (= x7 x149)) (x140 (= x42 x62)) (x3 (= x31 x137)) (x104 (= x149 x106)) (x9 (= x108 x35)) (x112 (= x55 x31)) (x1 (= x62 x92)) (x67 (= x62 x24)) (x74 (= x62 x66)) (x19 (= x64 x63)) (x47 (= x35 x106)) (x119 (= x31 x63)) (x118 (= x31 x130)) (x37 (= x64 x45)) (x22 (= x62 x108)) (x28 (= x92 x31)) (x52 (= x24 x31)) (x117 (= x31 x73)) (x87 (= x31 x42)) (x57 (= x45 x35)) (x86 (= x34 x31)) (x5 (= x65 x149)) (x93 (= x108 x149)) (x82 (= x35 x34)) (x131 (= x45 x62)) (x41 (= x7 x62)) (x68 (= x100 x62)) (x116 (= x60 x64)) (x2 (= x149 x75)) (x83 (= x15 x149)) (x122 (= x31 x66)) (x39 (= x24 x149)) (x95 (= x106 x31)) (x132 (= x149 x79)) (x105 (= x138 x31)) (x107 (= x106 x64)) (x142 (= x100 x31)) (x91 (= x149 x137)) (x14 (= x149 x150)) (x127 (= x62 x60)) (x157 (= x138 x64)) (x71 (= x92 x64)) (x146 (= x31 x108)) (x30 (= x35 x15)) (x125 (= x130 x64)) (x153 (= x35 x75)) (x38 (= x63 x35)) (x10 (= x62 x63)) (x154 (= x89 x149)) (x12 (= x62 x65)) (x84 (= x24 x35)) (x136 (= x34 x149)) (x17 (= x66 x149)) (x139 (= x92 x35)) (x59 (= x98 x31)) (x72 (= x60 x149)) (x159 (= x158 x35)) (x96 (= x149 x63)) (x27 (= x7 x35)) (x141 (= x79 x35)) (x54 (= x42 x64)) (x152 (= x15 x64)) (x103 (= x62 x137)) (x21 (= x62 x79)) (x4 (= x65 x35)) (x147 (= x149 x98)) (x148 (= x55 x62)) (x115 (= x35 x138)) (x6 (= x73 x149)) (x111 (= x31 x158)) (x11 (= x149 x45)) (x33 (= x7 x31)) (x90 (= x62 x75)) (x81 (= x35 x89)) (x46 (= x35 x55)) (x76 (= x138 x62)) (x129 (= x75 x64)) (x155 (= x64 x79)) (x126 (= x149 x138)) (x29 (= x64 x55)) (x80 (= x73 x35)) (x94 (= x64 x108)) (x32 (= x62 x98)) (x58 (= x31 x60)) (x88 (= x35 x100)) (x97 (= x150 x31)) (x99 (= x130 x149)) (x13 (= x100 x64)) (x20 (= x15 x31)) (x40 (= x150 x62)) (x56 (= x31 x79)) (x44 (= x42 x149)) (x51 (= x15 x62)) (x23 (= x64 x89)) (x151 (= x149 x100)) (x70 (= x130 x35)) (x18 (= x64 x7)) (x124 (= x31 x75)) (x133 (= x65 x31)) (x121 (= x73 x62)) (x102 (= x64 x137)) (x120 (= x64 x73)) (x113 (= x137 x35)) (x49 (= x62 x89)) (x8 (= x35 x98)) (x101 (= x35 x66)) (x85 (= x62 x106)) (x134 (= x31 x89)) (x16 (= x60 x35)) (x50 (= x34 x64)) (x123 (= x64 x66)) (x61 (= x150 x64)) (x48 (= x149 x55)) (x25 (= x65 x64)) (x26 (= x45 x31)) (x114 (= x158 x62))) (and (and (and (and (and (and (and (or (or (or x40 (or x49 x21)) x148) x32) (or (or (or x51 (or x114 x21)) x12) x68)) (and (and (or (or x4 (or (or x159 x141) x30)) x88) (or (or x46 (or (or x141 x81) x36)) x8)) (and (and (or x142 (or x133 (or (or x56 x111) x20))) (or (or (or (or x56 x134) x97) x112) x59)) (and (or (or x48 (or x14 (or x154 x132))) x147) (or (or x5 (or (or x128 x132) x83)) x151))))) (and (or (or (or x152 (or x155 x53)) x25) x13) (or (or x29 (or (or x23 x155) x61)) x77))) (and (and (or (or x37 (or x71 (or x50 x23))) x54) (or (or (or (or x53 x50) x116) x18) x157)) (and (and (and (or (or x27 (or (or x82 x159) x16)) x115) (or (or (or (or x82 x81) x139) x57) x110)) (and (and (or (or (or x72 (or x128 x136)) x156) x126) (or (or (or x144 (or x154 x136)) x11) x44)) (and (or x87 (or x26 (or x28 (or x86 x134)))) (or x105 (or (or x58 (or x86 x111)) x33))))) (and (or x140 (or x131 (or (or x49 x43) x1))) (or x76 (or (or (or x43 x114) x127) x41)))))) (and (and (or (or (or x125 (or x71 x152)) x129) x123) (or (or x78 (or (or x116 x61) x125)) x94)) (and (and (and (and (or (or x124 (or (or x20 x28) x118)) x122) (or (or (or x118 (or x97 x58)) x52) x146)) (and (or x17 (or (or (or x83 x144) x99) x2)) (or (or (or (or x72 x14) x99) x39) x93))) (and (or x9 (or (or (or x16 x36) x70) x84)) (or (or x153 (or (or x30 x139) x70)) x101))) (and (or (or (or (or x51 x1) x145) x90) x74) (or (or (or x145 (or x40 x127)) x67) x22))))) (and (and (or (or (or x129 (or x18 x29)) x19) x107) (or x120 (or x19 (or (or x25 x37) x78)))) (and (and (and (or x47 (or x38 (or x153 (or x27 x46)))) (or (or (or x84 (or x4 x57)) x38) x80)) (and (and (or x95 (or x119 (or (or x112 x33) x124))) (or (or x119 (or x52 (or x26 x133))) x117)) (and (or x104 (or x96 (or x2 (or x48 x156)))) (or x6 (or (or x39 (or x5 x11)) x96))))) (and (or (or (or x90 (or x41 x148)) x10) x85) (or x121 (or x10 (or x67 (or x12 x131)))))))) (and (and (or x102 (or (or (or x54 x13) x94) x107)) (or x102 (or x120 (or (or x77 x157) x123)))) (and (and (or (or (or (or x32 x76) x74) x121) x103) (or x103 (or x85 (or (or x68 x140) x22)))) (and (and (or x113 (or (or (or x110 x88) x9) x47)) (or (or (or (or x115 x8) x101) x80) x113)) (and (and (or x91 (or (or (or x151 x44) x93) x104)) (or x91 (or (or x17 (or x126 x147)) x6))) (and (or (or (or (or x87 x142) x146) x95) x3) (or (or x117 (or x122 (or x59 x105))) x3))))))))))
(assert (or (= (x135 x64 x64) x64) (or (= (x135 x62 x62) x62) (or (= (x135 x35 x35) x35) (or (= x31 (x135 x31 x31)) (= (x135 x149 x149) x149))))))
(assert (let ((x65 (x135 x64 x64)) (x132 (x135 x149 x149)) (x79 (x135 x31 x31)) (x158 (x135 x35 x35)) (x15 (x135 x62 x62))) (or (and (not (= x64 (x135 x65 x64))) (and (not (= x62 (x135 x65 x62))) (and (not (= (x135 x65 x35) x35)) (and (not (= (x135 x65 x149) x149)) (not (= (x135 x65 x31) x31)))))) (or (or (or (and (and (and (not (= x35 (x135 x79 x35))) (and (not (= (x135 x79 x31) x31)) (not (= (x135 x79 x149) x149)))) (not (= (x135 x79 x62) x62))) (not (= (x135 x79 x64) x64))) (and (and (not (= (x135 x132 x62) x62)) (and (and (not (= (x135 x132 x149) x149)) (not (= x31 (x135 x132 x31)))) (not (= x35 (x135 x132 x35))))) (not (= x64 (x135 x132 x64))))) (and (and (not (= x62 (x135 x158 x62))) (and (and (not (= x31 (x135 x158 x31))) (not (= (x135 x158 x149) x149))) (not (= (x135 x158 x35) x35)))) (not (= (x135 x158 x64) x64)))) (and (not (= x64 (x135 x15 x64))) (and (not (= x62 (x135 x15 x62))) (and (not (= x35 (x135 x15 x35))) (and (not (= x31 (x135 x15 x31))) (not (= x149 (x135 x15 x149)))))))))))
(assert (or (and (and (not (= (x135 x62 (x135 x64 x62)) x62)) (and (and (not (= x149 (x135 x149 (x135 x64 x149)))) (not (= (x135 x31 (x135 x64 x31)) x31))) (not (= (x135 x35 (x135 x64 x35)) x35)))) (not (= (x135 x64 (x135 x64 x64)) x64))) (or (or (or (and (and (not (= x62 (x135 x62 (x135 x31 x62)))) (and (not (= (x135 x35 (x135 x31 x35)) x35)) (and (not (= x149 (x135 x149 (x135 x31 x149)))) (not (= x31 (x135 x31 (x135 x31 x31))))))) (not (= (x135 x64 (x135 x31 x64)) x64))) (and (not (= (x135 x64 (x135 x149 x64)) x64)) (and (and (not (= (x135 x35 (x135 x149 x35)) x35)) (and (not (= (x135 x31 (x135 x149 x31)) x31)) (not (= x149 (x135 x149 (x135 x149 x149)))))) (not (= (x135 x62 (x135 x149 x62)) x62))))) (and (and (and (and (not (= (x135 x31 (x135 x35 x31)) x31)) (not (= x149 (x135 x149 (x135 x35 x149))))) (not (= (x135 x35 (x135 x35 x35)) x35))) (not (= x62 (x135 x62 (x135 x35 x62))))) (not (= x64 (x135 x64 (x135 x35 x64)))))) (and (and (not (= (x135 x62 (x135 x62 x62)) x62)) (and (not (= (x135 x35 (x135 x62 x35)) x35)) (and (not (= x149 (x135 x149 (x135 x62 x149)))) (not (= (x135 x31 (x135 x62 x31)) x31))))) (not (= x64 (x135 x64 (x135 x62 x64))))))))
(assert (and (or (or (or (or (= (x135 (x135 x64 x31) x64) x31) (= x149 (x135 (x135 x64 x149) x64))) (= (x135 (x135 x64 x35) x64) x35)) (= x62 (x135 (x135 x64 x62) x64))) (= (x135 (x135 x64 x64) x64) x64)) (and (or (= (x135 (x135 x62 x64) x62) x64) (or (or (= (x135 (x135 x62 x35) x62) x35) (or (= x31 (x135 (x135 x62 x31) x62)) (= x149 (x135 (x135 x62 x149) x62)))) (= x62 (x135 (x135 x62 x62) x62)))) (and (and (or (= x64 (x135 (x135 x31 x64) x31)) (or (= x62 (x135 (x135 x31 x62) x31)) (or (= x35 (x135 (x135 x31 x35) x31)) (or (= x149 (x135 (x135 x31 x149) x31)) (= x31 (x135 (x135 x31 x31) x31)))))) (or (or (= (x135 (x135 x149 x62) x149) x62) (or (= x35 (x135 (x135 x149 x35) x149)) (or (= x31 (x135 (x135 x149 x31) x149)) (= (x135 (x135 x149 x149) x149) x149)))) (= (x135 (x135 x149 x64) x149) x64))) (or (or (or (= x35 (x135 (x135 x35 x35) x35)) (or (= (x135 (x135 x35 x31) x35) x31) (= (x135 (x135 x35 x149) x35) x149))) (= (x135 (x135 x35 x62) x35) x62)) (= (x135 (x135 x35 x64) x35) x64))))))
(assert (let ((x154 (x135 x64 x35)) (x141 (x135 x31 x35)) (x150 (x135 x62 x31)) (x134 (x135 x35 x62)) (x56 (x135 x31 x31)) (x100 (x135 x149 x31)) (x98 (x135 x149 x35)) (x92 (x135 x64 x62)) (x79 (x135 x31 x149)) (x89 (x135 x35 x31)) (x155 (x135 x62 x35)) (x132 (x135 x149 x149)) (x55 (x135 x64 x31)) (x86 (x135 x62 x64)) (x34 (x135 x62 x62)) (x42 (x135 x31 x64)) (x45 (x135 x149 x64)) (x158 (x135 x35 x149)) (x65 (x135 x64 x149)) (x136 (x135 x31 x62)) (x111 (x135 x35 x64)) (x15 (x135 x62 x149)) (x128 (x135 x149 x62)) (x21 (x135 x35 x35)) (x60 (x135 x64 x64))) (and (and (and (and (not (= x34 x92)) (and (and (and (and (and (and (and (and (not (= x136 x128)) (not (= x134 x128))) (not (= x34 x128))) (not (= x92 x128))) (not (= x136 x134))) (not (= x136 x34))) (not (= x136 x92))) (not (= x34 x134))) (not (= x134 x92)))) (and (and (and (and (not (= x89 x55)) (and (not (= x150 x89)) (and (and (and (not (= x89 x56)) (and (and (and (not (= x89 x100)) (not (= x100 x56))) (not (= x150 x100))) (not (= x55 x100)))) (not (= x150 x56))) (not (= x56 x55))))) (not (= x150 x55))) (and (not (= x15 x65)) (and (not (= x158 x65)) (and (and (and (and (not (= x158 x79)) (and (not (= x65 x132)) (and (not (= x15 x132)) (and (not (= x132 x79)) (not (= x132 x158)))))) (not (= x15 x79))) (not (= x79 x65))) (not (= x158 x15)))))) (and (and (and (not (= x21 x155)) (and (and (and (and (and (not (= x98 x155)) (and (not (= x98 x21)) (not (= x98 x141)))) (not (= x98 x154))) (not (= x141 x21))) (not (= x155 x141))) (not (= x154 x141)))) (not (= x154 x21))) (not (= x154 x155))))) (and (not (= x60 x86)) (and (not (= x60 x111)) (and (not (= x111 x86)) (and (and (and (and (and (not (= x86 x45)) (and (not (= x42 x45)) (not (= x111 x45)))) (not (= x45 x60))) (not (= x42 x111))) (not (= x42 x86))) (not (= x42 x60))))))) (and (and (not (= x92 x60)) (and (and (and (and (not (= x92 x55)) (and (and (not (= x65 x60)) (and (and (not (= x154 x65)) (not (= x65 x55))) (not (= x65 x92)))) (not (= x154 x55)))) (not (= x60 x55))) (not (= x92 x154))) (not (= x154 x60)))) (and (and (and (and (not (= x128 x45)) (and (not (= x98 x45)) (and (and (and (not (= x128 x100)) (and (and (and (and (not (= x100 x132)) (not (= x132 x98))) (not (= x128 x132))) (not (= x132 x45))) (not (= x98 x100)))) (not (= x45 x100))) (not (= x128 x98))))) (and (and (and (and (not (= x56 x42)) (and (not (= x56 x136)) (and (and (not (= x79 x42)) (and (not (= x79 x136)) (and (not (= x141 x79)) (not (= x56 x79))))) (not (= x56 x141))))) (not (= x136 x141))) (not (= x141 x42))) (not (= x42 x136)))) (and (not (= x111 x134)) (and (and (and (and (and (not (= x89 x21)) (and (not (= x158 x111)) (and (not (= x158 x134)) (and (not (= x89 x158)) (not (= x21 x158)))))) (not (= x89 x134))) (not (= x111 x89))) (not (= x21 x134))) (not (= x21 x111))))) (and (not (= x86 x34)) (and (and (and (and (and (not (= x150 x155)) (and (not (= x86 x15)) (and (and (not (= x155 x15)) (not (= x15 x150))) (not (= x15 x34))))) (not (= x150 x34))) (not (= x150 x86))) (not (= x155 x34))) (not (= x86 x155)))))))))
(assert (let ((x15 (x135 x62 x62)) (x65 (x135 x64 x64)) (x158 (x135 x35 x35)) (x79 (x135 x31 x31)) (x132 (x135 x149 x149))) (or (and (not (= x64 x65)) (and (not (= x15 x64)) (and (and (not (= x132 x64)) (not (= x64 x79))) (not (= x64 x158))))) (or (or (and (not (= x35 x65)) (and (and (and (not (= x35 x132)) (not (= x79 x35))) (not (= x35 x158))) (not (= x35 x15)))) (or (and (not (= x65 x31)) (and (and (not (= x158 x31)) (and (not (= x79 x31)) (not (= x31 x132)))) (not (= x15 x31)))) (and (and (and (not (= x149 x158)) (and (not (= x149 x132)) (not (= x79 x149)))) (not (= x15 x149))) (not (= x149 x65))))) (and (not (= x62 x65)) (and (not (= x15 x62)) (and (not (= x62 x158)) (and (not (= x132 x62)) (not (= x62 x79))))))))))
(assert (let ((x21 (x135 x35 x35)) (x86 (x135 x62 x64)) (x65 (x135 x64 x149)) (x155 (x135 x62 x35)) (x111 (x135 x35 x64)) (x150 (x135 x62 x31)) (x136 (x135 x31 x62)) (x158 (x135 x35 x149)) (x98 (x135 x149 x35)) (x141 (x135 x31 x35)) (x128 (x135 x149 x62)) (x42 (x135 x31 x64)) (x100 (x135 x149 x31)) (x34 (x135 x62 x62)) (x154 (x135 x64 x35)) (x134 (x135 x35 x62)) (x89 (x135 x35 x31)) (x15 (x135 x62 x149)) (x79 (x135 x31 x149)) (x45 (x135 x149 x64)) (x55 (x135 x64 x31)) (x56 (x135 x31 x31)) (x132 (x135 x149 x149)) (x92 (x135 x64 x62)) (x60 (x135 x64 x64))) (or (and (and (not (= (x135 x86 x86) x62)) (and (and (not (= x31 (x135 x42 x42))) (not (= x149 (x135 x45 x45)))) (not (= (x135 x111 x111) x35)))) (not (= x64 (x135 x60 x60)))) (or (and (not (= x64 (x135 x92 x92))) (and (not (= (x135 x34 x34) x62)) (and (and (not (= x149 (x135 x128 x128))) (not (= x31 (x135 x136 x136)))) (not (= (x135 x134 x134) x35))))) (or (and (and (not (= x62 (x135 x155 x155))) (and (and (not (= (x135 x98 x98) x149)) (not (= x31 (x135 x141 x141)))) (not (= (x135 x21 x21) x35)))) (not (= x64 (x135 x154 x154)))) (or (and (and (and (and (not (= (x135 x79 x79) x31)) (not (= (x135 x132 x132) x149))) (not (= x35 (x135 x158 x158)))) (not (= (x135 x15 x15) x62))) (not (= x64 (x135 x65 x65)))) (and (not (= (x135 x55 x55) x64)) (and (and (not (= (x135 x89 x89) x35)) (and (not (= x149 (x135 x100 x100))) (not (= x31 (x135 x56 x56))))) (not (= (x135 x150 x150) x62))))))))))
(assert (or (and (and (and (not (= (x135 (x135 x35 x64) x64) x35)) (and (not (= x149 (x135 (x135 x149 x64) x64))) (not (= x31 (x135 (x135 x31 x64) x64))))) (not (= (x135 (x135 x62 x64) x64) x62))) (not (= (x135 (x135 x64 x64) x64) x64))) (or (or (or (and (not (= x64 (x135 (x135 x64 x149) x149))) (and (and (and (not (= x149 (x135 (x135 x149 x149) x149))) (not (= (x135 (x135 x31 x149) x149) x31))) (not (= (x135 (x135 x35 x149) x149) x35))) (not (= (x135 (x135 x62 x149) x149) x62)))) (and (not (= x64 (x135 (x135 x64 x31) x31))) (and (not (= x62 (x135 (x135 x62 x31) x31))) (and (and (not (= (x135 (x135 x149 x31) x31) x149)) (not (= x31 (x135 (x135 x31 x31) x31)))) (not (= x35 (x135 (x135 x35 x31) x31))))))) (and (not (= (x135 (x135 x64 x35) x35) x64)) (and (not (= x62 (x135 (x135 x62 x35) x35))) (and (not (= x35 (x135 (x135 x35 x35) x35))) (and (not (= x149 (x135 (x135 x149 x35) x35))) (not (= x31 (x135 (x135 x31 x35) x35)))))))) (and (and (not (= x62 (x135 (x135 x62 x62) x62))) (and (and (not (= x31 (x135 (x135 x31 x62) x62))) (not (= (x135 (x135 x149 x62) x62) x149))) (not (= x35 (x135 (x135 x35 x62) x62))))) (not (= (x135 (x135 x64 x62) x62) x64))))))
(assert (or (and (not (= x64 (x135 x64 (x135 x64 x64)))) (and (not (= (x135 x62 (x135 x64 x62)) x64)) (and (and (not (= (x135 x31 (x135 x64 x31)) x64)) (not (= (x135 x149 (x135 x64 x149)) x64))) (not (= x64 (x135 x35 (x135 x64 x35))))))) (or (and (and (and (and (not (= x62 (x135 x31 (x135 x62 x31)))) (not (= x62 (x135 x149 (x135 x62 x149))))) (not (= (x135 x35 (x135 x62 x35)) x62))) (not (= (x135 x62 (x135 x62 x62)) x62))) (not (= x62 (x135 x64 (x135 x62 x64))))) (or (and (not (= (x135 x64 (x135 x35 x64)) x35)) (and (and (not (= x35 (x135 x35 (x135 x35 x35)))) (and (not (= (x135 x149 (x135 x35 x149)) x35)) (not (= (x135 x31 (x135 x35 x31)) x35)))) (not (= (x135 x62 (x135 x35 x62)) x35)))) (or (and (and (and (and (not (= x31 (x135 x31 (x135 x31 x31)))) (not (= (x135 x149 (x135 x31 x149)) x31))) (not (= x31 (x135 x35 (x135 x31 x35))))) (not (= (x135 x62 (x135 x31 x62)) x31))) (not (= x31 (x135 x64 (x135 x31 x64))))) (and (not (= x149 (x135 x64 (x135 x149 x64)))) (and (and (and (not (= (x135 x149 (x135 x149 x149)) x149)) (not (= x149 (x135 x31 (x135 x149 x31))))) (not (= x149 (x135 x35 (x135 x149 x35))))) (not (= x149 (x135 x62 (x135 x149 x62)))))))))))
(assert (not (and (and (= (x135 x64 x62) x64) (and (and (and (and (and (and (= x149 (x135 x62 x35)) (and (= (x135 x62 x31) x31) (and (= (x135 x62 x149) x62) (and (= (x135 x35 x64) x31) (and (and (and (and (and (= x35 (x135 x31 x64)) (and (= x31 (x135 x31 x62)) (and (and (= (x135 x31 x31) x149) (and (and (and (and (= (x135 x149 x35) x64) (and (= x31 (x135 x149 x149)) (= (x135 x149 x31) x35))) (= x149 (x135 x149 x62))) (= x62 (x135 x149 x64))) (= (x135 x31 x149) x64))) (= (x135 x31 x35) x62)))) (= (x135 x35 x149) x149)) (= x64 (x135 x35 x31))) (= (x135 x35 x35) x35)) (= x62 (x135 x35 x62))))))) (= (x135 x62 x62) x35)) (= x64 (x135 x62 x64))) (= (x135 x64 x149) x35)) (= x62 (x135 x64 x31))) (= (x135 x64 x35) x31))) (= (x135 x64 x64) x149))))
(assert (and (= x62 (x135 x149 x64)) (and (= (x135 x64 x149) x35) (and (= x31 (x135 x35 x64)) (= x149 (x135 x64 x64))))))
(assert (let ((x154 (x135 x35 x62)) (x42 (x135 x35 x64)) (x34 (x135 x64 x31)) (x136 (x135 x64 x149)) (x55 (x135 x62 x149)) (x150 (x135 x35 x35)) (x56 (x135 x35 x31)) (x7 (x135 x149 x149)) (x86 (x135 x62 x64)) (x79 (x135 x31 x149)) (x45 (x135 x64 x35)) (x49 (x135 x149 x62)) (x89 (x135 x31 x35)) (x111 (x135 x64 x62)) (x60 (x135 x64 x64)) (x92 (x135 x31 x64)) (x15 (x135 x31 x31)) (x65 (x135 x35 x149)) (x43 (x135 x149 x64)) (x21 (x135 x31 x62)) (x128 (x135 x62 x62)) (x141 (x135 x62 x31)) (x138 (x135 x149 x31)) (x155 (x135 x62 x35)) (x159 (x135 x149 x35))) (let ((x99 (= x34 x64)) (x134 (= x43 x149)) (x82 (= x65 x35)) (x50 (= x31 x89)) (x118 (= x62 x86)) (x108 (= x62 x128)) (x97 (= x35 x150)) (x14 (= x35 x56)) (x144 (= x31 x92)) (x83 (= x62 x141)) (x53 (= x15 x31)) (x58 (= x62 x155)) (x20 (= x64 x111)) (x158 (= x149 x138)) (x28 (= x35 x42)) (x75 (= x60 x64)) (x24 (= x154 x35)) (x114 (= x62 x55)) (x132 (= x149 x7)) (x98 (= x49 x149)) (x130 (= x45 x64)) (x72 (= x31 x21)) (x100 (= x149 x159)) (x81 (= x79 x31)) (x23 (= x64 x136))) (and (and (or (or (or (and x20 x118) (or (or (and x58 x24) (or (and x98 x114) (and x72 x83))) (and x108 x108))) (or (or (and (= x62 x42) x130) (or (and (= x62 x154) x58) (or (and x97 (= x62 x150)) (or (and x50 (= x56 x62)) (and x100 (= x65 x62)))))) (or (or (and x23 (= x62 x43)) (or (or (or (and x81 (= x62 x138)) (and x132 (= x62 x7))) (and x82 (= x159 x62))) (and x114 (= x62 x49)))) (or (or (or (and (= x62 x89) x14) (or (and (= x79 x62) x158) (and x53 (= x15 x62)))) (and (= x62 x21) x83)) (and (= x92 x62) x99))))) (or (or (or (or (and x134 (= x136 x62)) (and x144 (= x34 x62))) (and (= x45 x62) x28)) (and x118 (= x62 x111))) (and x75 (= x62 x60)))) (and (or (or (or (or (or (and x144 (= x34 x35)) (and x134 (= x35 x136))) (and (= x45 x35) x28)) (and x118 (= x111 x35))) (and x75 (= x35 x60))) (or (or (or (or (or (or (and x14 (= x35 x89)) (or (and (= x35 x79) x158) (and x53 (= x15 x35)))) (and x83 (= x35 x21))) (and x99 (= x35 x92))) (or (or (and (= x49 x35) x114) (or (and x82 (= x159 x35)) (or (and x81 (= x35 x138)) (and x132 (= x7 x35))))) (and x23 (= x35 x43)))) (or (and x130 x28) (or (and x24 x58) (or (or (and x50 x14) (and x100 x82)) (and x97 x97))))) (or (and (= x35 x86) x20) (or (and x108 (= x128 x35)) (or (or (and (= x141 x35) x72) (and (= x55 x35) x98)) (and (= x155 x35) x24)))))) (and (or (or (or (or (and (= x31 x42) x130) (or (and x58 (= x31 x154)) (or (or (and (= x31 x65) x100) (and (= x56 x31) x50)) (and (= x31 x150) x97)))) (or (or (or (or (and x82 (= x31 x159)) (or (and (= x7 x31) x132) (and (= x31 x138) x81))) (and x114 (= x31 x49))) (and (= x43 x31) x23)) (or (and x144 x99) (or (or (or (and x53 x53) (and x158 x81)) (and x14 x50)) (and x72 x83))))) (or (or (and x108 (= x128 x31)) (or (and (= x155 x31) x24) (or (and (= x55 x31) x98) (and (= x141 x31) x72)))) (and (= x31 x86) x20))) (or (and (= x60 x31) x75) (or (or (and x28 (= x31 x45)) (or (and (= x31 x136) x134) (and (= x31 x34) x144))) (and (= x111 x31) x118)))) (or (or (or (or (or (and (= x149 x154) x58) (or (or (and x100 (= x149 x65)) (and (= x56 x149) x50)) (and x97 (= x150 x149)))) (and (= x149 x42) x130)) (or (or (and x134 x23) (or (or (or (and x132 x132) (and x158 x81)) (and x82 x100)) (and x114 x98))) (or (and x99 (= x92 x149)) (or (and (= x149 x21) x83) (or (or (and x53 (= x15 x149)) (and x158 (= x149 x79))) (and (= x149 x89) x14)))))) (or (or (or (and x24 (= x155 x149)) (or (and (= x141 x149) x72) (and (= x55 x149) x98))) (and (= x128 x149) x108)) (and x20 (= x86 x149)))) (or (or (and (= x111 x149) x118) (or (and (= x45 x149) x28) (or (and x144 (= x34 x149)) (and x134 (= x149 x136))))) (and (= x149 x60) x75)))))) (or (or (or (or (and (= x64 x42) x130) (or (and (= x154 x64) x58) (or (and x97 (= x150 x64)) (or (and x100 (= x65 x64)) (and x50 (= x56 x64)))))) (or (or (and x99 (= x92 x64)) (or (and x83 (= x21 x64)) (or (or (and (= x64 x79) x158) (and (= x64 x15) x53)) (and x14 (= x64 x89))))) (or (and x23 (= x64 x43)) (or (and (= x64 x49) x114) (or (and (= x64 x159) x82) (or (and x81 (= x138 x64)) (and x132 (= x7 x64)))))))) (or (and x20 (= x64 x86)) (or (and (= x128 x64) x108) (or (or (and (= x64 x55) x98) (and x72 (= x141 x64))) (and x24 (= x64 x155)))))) (or (and x75 x75) (or (or (or (and x23 x134) (and x144 x99)) (and x28 x130)) (and x20 x118))))))))
(assert (or (and (and (and (not (= (x135 (x135 x35 x64) x35) x64)) (and (not (= (x135 (x135 x149 x64) x149) x64)) (not (= (x135 (x135 x31 x64) x31) x64)))) (not (= (x135 (x135 x62 x64) x62) x64))) (not (= (x135 (x135 x64 x64) x64) x64))) (or (and (not (= x62 (x135 (x135 x64 x62) x64))) (and (and (not (= (x135 (x135 x35 x62) x35) x62)) (and (not (= (x135 (x135 x31 x62) x31) x62)) (not (= (x135 (x135 x149 x62) x149) x62)))) (not (= (x135 (x135 x62 x62) x62) x62)))) (or (and (not (= x35 (x135 (x135 x64 x35) x64))) (and (not (= (x135 (x135 x62 x35) x62) x35)) (and (and (not (= x35 (x135 (x135 x149 x35) x149))) (not (= (x135 (x135 x31 x35) x31) x35))) (not (= x35 (x135 (x135 x35 x35) x35)))))) (or (and (not (= (x135 (x135 x64 x31) x64) x31)) (and (and (and (not (= x31 (x135 (x135 x149 x31) x149))) (not (= (x135 (x135 x31 x31) x31) x31))) (not (= x31 (x135 (x135 x35 x31) x35)))) (not (= x31 (x135 (x135 x62 x31) x62))))) (and (and (not (= (x135 (x135 x62 x149) x62) x149)) (and (not (= (x135 (x135 x35 x149) x35) x149)) (and (not (= x149 (x135 (x135 x149 x149) x149))) (not (= (x135 (x135 x31 x149) x31) x149))))) (not (= x149 (x135 (x135 x64 x149) x64)))))))))
(assert (let ((x72 (x135 x31 x31)) (x58 (x135 x62 x31)) (x16 (x135 x62 x35)) (x81 (x135 x149 x31)) (x7 (x135 x149 x149)) (x71 (x135 x64 x62)) (x49 (x135 x35 x149)) (x97 (x135 x31 x62)) (x36 (x135 x35 x62)) (x53 (x135 x64 x149)) (x30 (x135 x35 x64)) (x130 (x135 x31 x64)) (x139 (x135 x64 x35)) (x75 (x135 x35 x35)) (x112 (x135 x64 x64)) (x152 (x135 x62 x64)) (x82 (x135 x149 x35)) (x144 (x135 x31 x35)) (x61 (x135 x62 x62)) (x99 (x135 x35 x31)) (x114 (x135 x149 x62)) (x159 (x135 x31 x149)) (x24 (x135 x64 x31)) (x23 (x135 x149 x64)) (x43 (x135 x62 x149))) (let ((x65 (not (= x149 x49))) (x21 (not (= x149 x97))) (x77 (not (= x53 x64))) (x118 (not (= x31 x144))) (x50 (not (= x159 x31))) (x67 (not (= x35 x139))) (x79 (not (= x159 x149))) (x111 (not (= x149 x71))) (x155 (not (= x16 x149))) (x93 (not (= x114 x62))) (x83 (not (= x72 x31))) (x129 (not (= x35 x112))) (x146 (not (= x139 x62))) (x48 (not (= x31 x23))) (x45 (not (= x139 x149))) (x145 (not (= x36 x31))) (x70 (not (= x31 x43))) (x42 (not (= x30 x149))) (x73 (not (= x144 x35))) (x138 (not (= x31 x7))) (x90 (not (= x35 x23))) (x84 (not (= x35 x16))) (x126 (not (= x82 x62))) (x19 (not (= x72 x62))) (x94 (not (= x71 x64))) (x141 (not (= x58 x149))) (x116 (not (= x31 x61))) (x26 (not (= x49 x35))) (x46 (not (= x75 x35))) (x59 (not (= x16 x62))) (x101 (not (= x7 x64))) (x89 (not (= x144 x149))) (x132 (not (= x7 x149))) (x136 (not (= x149 x53))) (x4 (not (= x58 x35))) (x131 (not (= x35 x130))) (x10 (not (= x35 x30))) (x1 (not (= x31 x16))) (x124 (not (= x7 x35))) (x110 (not (= x72 x64))) (x63 (not (= x159 x35))) (x25 (not (= x7 x62))) (x98 (not (= x149 x114))) (x153 (not (= x114 x35))) (x142 (not (= x62 x24))) (x74 (not (= x43 x64))) (x150 (not (= x75 x149))) (x87 (not (= x62 x130))) (x156 (not (= x24 x31))) (x33 (not (= x112 x31))) (x106 (not (= x35 x81))) (x8 (not (= x152 x62))) (x157 (not (= x23 x64))) (x6 (not (= x144 x62))) (x60 (not (= x149 x112))) (x18 (not (= x152 x35))) (x47 (not (= x82 x64))) (x148 (not (= x35 x61))) (x127 (not (= x58 x31))) (x119 (not (= x35 x99))) (x125 (not (= x31 x53))) (x51 (not (= x31 x97))) (x17 (not (= x62 x99))) (x80 (not (= x64 x159))) (x41 (not (= x35 x53))) (x28 (not (= x99 x31))) (x34 (not (= x149 x24))) (x121 (not (= x114 x64))) (x128 (not (= x149 x61))) (x133 (not (= x35 x72))) (x120 (not (= x64 x130))) (x151 (not (= x62 x75))) (x32 (not (= x64 x144))) (x113 (not (= x99 x64))) (x68 (not (= x58 x64))) (x102 (not (= x64 x112))) (x88 (not (= x64 x81))) (x115 (not (= x62 x112))) (x100 (not (= x82 x149))) (x3 (not (= x62 x71))) (x44 (not (= x43 x62))) (x105 (not (= x62 x36))) (x123 (not (= x24 x64))) (x29 (not (= x71 x35))) (x9 (not (= x64 x49))) (x117 (not (= x53 x62))) (x11 (not (= x31 x30))) (x91 (not (= x97 x62))) (x54 (not (= x30 x64))) (x66 (not (= x31 x75))) (x78 (not (= x62 x81))) (x2 (not (= x31 x130))) (x134 (not (= x149 x23))) (x52 (not (= x82 x35))) (x12 (not (= x35 x24))) (x20 (not (= x82 x31))) (x40 (not (= x114 x31))) (x122 (not (= x61 x62))) (x13 (not (= x64 x139))) (x154 (not (= x36 x149))) (x39 (not (= x71 x31))) (x38 (not (= x35 x36))) (x108 (not (= x49 x31))) (x27 (not (= x35 x43))) (x22 (not (= x16 x64))) (x137 (not (= x23 x62))) (x55 (not (= x149 x43))) (x86 (not (= x149 x152))) (x104 (not (= x62 x58))) (x76 (not (= x64 x75))) (x5 (not (= x31 x139))) (x140 (not (= x97 x64))) (x92 (not (= x149 x130))) (x14 (not (= x31 x81))) (x57 (not (= x97 x35))) (x158 (not (= x149 x81))) (x95 (not (= x30 x62))) (x96 (not (= x31 x152))) (x56 (not (= x149 x99))) (x15 (not (= x149 x72))) (x103 (not (= x64 x61))) (x107 (not (= x152 x64))) (x147 (not (= x62 x49))) (x85 (not (= x36 x64))) (x37 (not (= x62 x159)))) (or (and (and (and (or x94 x107) (and (or x13 x54) (and (or x77 x157) (or x120 x123)))) (or x102 x102)) (and (and (and (and (or x85 x22) (and (and (or x9 x47) (or x113 x32)) (or x76 x76))) (or x13 x54)) (and (and (or x77 x157) (and (and (and (or x101 x101) (or x88 x80)) (or x9 x47)) (or x74 x121))) (and (or x120 x123) (and (or x140 x68) (and (and (or x80 x88) (or x110 x110)) (or x32 x113)))))) (and (or x94 x107) (and (or x103 x103) (and (and (or x140 x68) (or x121 x74)) (or x22 x85)))))) (or (or (or (and (and (and (or x86 x111) (and (and (or x155 x154) (and (or x141 x21) (or x98 x55))) (or x128 x128))) (and (and (and (or x134 x136) (and (and (and (or x132 x132) (or x79 x158)) (or x65 x100)) (or x55 x98))) (and (and (and (or x56 x89) (and (or x15 x15) (or x158 x79))) (or x21 x141)) (or x34 x92))) (and (and (or x155 x154) (and (and (or x56 x89) (or x65 x100)) (or x150 x150))) (or x42 x45)))) (and (or x60 x60) (and (and (or x42 x45) (and (or x136 x134) (or x34 x92))) (or x86 x111)))) (and (and (and (and (and (and (or x70 x40) (and (and (or x138 x138) (or x50 x14)) (or x20 x108))) (or x48 x125)) (and (and (and (and (or x83 x83) (or x14 x50)) (or x28 x118)) (or x51 x127)) (or x156 x2))) (and (or x5 x11) (and (and (or x66 x66) (and (or x108 x20) (or x28 x118))) (or x1 x145)))) (and (or x96 x39) (and (and (or x1 x145) (and (or x51 x127) (or x70 x40))) (or x116 x116)))) (and (or x33 x33) (and (and (or x5 x11) (and (or x156 x2) (or x125 x48))) (or x96 x39))))) (and (and (and (or x29 x18) (and (or x10 x67) (and (or x90 x41) (or x12 x131)))) (or x129 x129)) (and (and (and (or x10 x67) (and (and (and (or x73 x119) (or x26 x52)) (or x46 x46)) (or x38 x84))) (and (and (or x41 x90) (and (and (or x52 x26) (and (or x63 x106) (or x124 x124))) (or x153 x27))) (and (or x131 x12) (and (or x57 x4) (and (and (or x133 x133) (or x63 x106)) (or x73 x119)))))) (and (or x29 x18) (and (and (and (or x153 x27) (or x57 x4)) (or x84 x38)) (or x148 x148)))))) (and (and (and (or x3 x8) (and (or x122 x122) (and (or x105 x59) (and (or x91 x104) (or x93 x44))))) (and (and (and (and (or x104 x91) (and (and (or x37 x78) (or x19 x19)) (or x6 x17))) (or x87 x142)) (and (and (or x44 x93) (and (and (or x78 x37) (or x25 x25)) (or x147 x126))) (or x117 x137))) (and (or x146 x95) (and (or x59 x105) (and (or x151 x151) (and (or x126 x147) (or x17 x6))))))) (and (and (and (or x95 x146) (and (or x87 x142) (or x137 x117))) (or x8 x3)) (or x115 x115))))))))
(assert (not (and (and (and (= x62 (x135 x64 x35)) (and (and (and (and (= x62 (x135 x62 x62)) (and (= (x135 x62 x35) x64) (and (and (and (= x31 (x135 x35 x64)) (and (= (x135 x35 x62) x64) (and (= x149 (x135 x35 x35)) (and (and (= (x135 x35 x149) x62) (and (= (x135 x31 x64) x64) (and (and (and (= (x135 x31 x31) x62) (and (= (x135 x31 x149) x31) (and (and (and (= x31 (x135 x149 x35)) (and (= (x135 x149 x149) x64) (= (x135 x149 x31) x149))) (= (x135 x149 x62) x35)) (= (x135 x149 x64) x62)))) (= x35 (x135 x31 x35))) (= (x135 x31 x62) x149)))) (= x35 (x135 x35 x31)))))) (= x149 (x135 x62 x149))) (= x31 (x135 x62 x31))))) (= (x135 x62 x64) x35)) (= (x135 x64 x149) x35)) (= x64 (x135 x64 x31)))) (= x31 (x135 x64 x62))) (= x149 (x135 x64 x64)))))
(assert (let ((x45 (x135 x64 x149)) (x21 (x135 x35 x35)) (x89 (x135 x31 x35)) (x155 (x135 x35 x62)) (x34 (x135 x62 x62)) (x132 (x135 x149 x149)) (x136 (x135 x62 x31)) (x141 (x135 x35 x31)) (x86 (x135 x64 x62)) (x98 (x135 x35 x149)) (x154 (x135 x35 x64)) (x128 (x135 x62 x149)) (x42 (x135 x64 x31)) (x60 (x135 x64 x64)) (x134 (x135 x62 x35)) (x79 (x135 x149 x31)) (x65 (x135 x149 x64)) (x150 (x135 x31 x62)) (x56 (x135 x31 x31)) (x92 (x135 x62 x64)) (x100 (x135 x31 x149)) (x111 (x135 x64 x35)) (x158 (x135 x149 x35)) (x55 (x135 x31 x64)) (x15 (x135 x149 x62))) (or (and (not (= (x135 x60 x60) x64)) (and (and (and (not (= x149 (x135 x45 x45))) (not (= (x135 x42 x42) x31))) (not (= x35 (x135 x111 x111)))) (not (= (x135 x86 x86) x62)))) (or (or (or (and (not (= x64 (x135 x65 x65))) (and (not (= x62 (x135 x15 x15))) (and (not (= (x135 x158 x158) x35)) (and (not (= x31 (x135 x79 x79))) (not (= x149 (x135 x132 x132))))))) (and (and (and (and (not (= x31 (x135 x56 x56))) (not (= (x135 x100 x100) x149))) (not (= x35 (x135 x89 x89)))) (not (= x62 (x135 x150 x150)))) (not (= x64 (x135 x55 x55))))) (and (and (not (= (x135 x155 x155) x62)) (and (and (not (= (x135 x98 x98) x149)) (not (= x31 (x135 x141 x141)))) (not (= x35 (x135 x21 x21))))) (not (= (x135 x154 x154) x64)))) (and (not (= (x135 x92 x92) x64)) (and (not (= (x135 x34 x34) x62)) (and (not (= x35 (x135 x134 x134))) (and (not (= x31 (x135 x136 x136))) (not (= (x135 x128 x128) x149))))))))))
(assert (let ((x15 (x135 x62 x62)) (x158 (x135 x35 x35)) (x79 (x135 x31 x31)) (x65 (x135 x64 x64)) (x132 (x135 x149 x149))) (or (not (= x65 (x135 x65 x65))) (or (or (or (not (= x132 (x135 x132 x132))) (not (= (x135 x79 x79) x79))) (not (= (x135 x158 x158) x158))) (not (= x15 (x135 x15 x15)))))))
(check-sat)
(exit)
